CPXPARAM_Simplex_Display                         2
CPXPARAM_TimeLimit                               7200
CPXPARAM_Read_APIEncoding                        "*"
CPXPARAM_Output_CloneLog                         1
CPXPARAM_MIP_Tolerances_MIPGap                   0.035000000000000003
CPXPARAM_MIP_Interval                            20
CPXPARAM_MIP_Strategy_VariableSelect             1
CPXPARAM_Barrier_Display                         2
Tried aggregator 1 time.
MIP Presolve eliminated 8 rows and 0 columns.
MIP Presolve added 22800 rows and 11400 columns.
MIP Presolve modified 4184 coefficients.
Reduced MIP has 22858 rows, 11800 columns, and 47741 nonzeros.
Reduced MIP has 11800 binaries, 0 generals, 0 SOSs, and 0 indicators.
Presolve time = 0.03 sec. (7.54 ticks)
Found incumbent of value 12160.364217 after 0.26 sec. (60.93 ticks)
Probing fixed 9 vars, tightened 0 bounds.
Probing time = 0.38 sec. (9.11 ticks)
Tried aggregator 1 time.
MIP Presolve eliminated 15732 rows and 4341 columns.
MIP Presolve modified 180 coefficients.
Reduced MIP has 7126 rows, 7459 columns, and 23237 nonzeros.
Reduced MIP has 7459 binaries, 0 generals, 0 SOSs, and 0 indicators.
Presolve time = 0.12 sec. (26.10 ticks)
Probing fixed 9 vars, tightened 0 bounds.
Probing time = 0.32 sec. (5.32 ticks)
Tried aggregator 1 time.
MIP Presolve eliminated 171 rows and 180 columns.
Reduced MIP has 6955 rows, 7279 columns, and 22697 nonzeros.
Reduced MIP has 7279 binaries, 0 generals, 0 SOSs, and 0 indicators.
Presolve time = 0.07 sec. (15.29 ticks)
Probing time = 0.27 sec. (4.75 ticks)
Clique table members: 1632.
MIP emphasis: balance optimality and feasibility.
MIP search method: dynamic search.
Parallel mode: deterministic, using up to 32 threads.
Root relaxation solution time = 0.53 sec. (115.58 ticks)

        Nodes                                         Cuts/
   Node  Left     Objective  IInf  Best Integer    Best Bound    ItCnt     Gap

*     0+    0                          203.6679        0.0000           100.00%
      0     0      192.8529   121      203.6679      192.8529      934    5.31%
      0     0      192.9807    81      203.6679     Cuts: 121     1220    5.25%
      0     0      193.0282    81      203.6679      Cuts: 83     1410    5.22%
      0     0      193.0448    68      203.6679      Cuts: 83     1607    5.22%
      0     0      193.0628    97      203.6679      Cuts: 82     2285    5.21%
      0     0      193.1488    64      203.6679      Cuts: 49     2559    5.16%
      0     0      193.1488    61      203.6679      Cuts: 73     2735    5.16%
      0     0      193.1488    75      203.6679      Cuts: 79     2929    5.16%
      0     2      193.1488    60      203.6679      193.1498     2929    5.16%
Elapsed time = 12.92 sec. (1547.98 ticks, tree = 0.01 MB, solutions = 2)
GUB cover cuts applied:  3
Clique cuts applied:  31
Implied bound cuts applied:  166
Zero-half cuts applied:  9
Gomory fractional cuts applied:  2

Root node processing (before b&c):
  Real time             =    9.29 sec. (1534.86 ticks)
Parallel b&c, 32 threads:
  Real time             =   26.61 sec. (870.71 ticks)
  Sync time (average)   =   21.48 sec.
  Wait time (average)   =    0.03 sec.
                          ------------
Total (root+branch&cut) =   35.90 sec. (2405.57 ticks)
